This is Ipopt version 3.11.9, running with linear solver mumps.
NOTE: Other linear solvers might be more efficient (see Ipopt documentation).

Number of nonzeros in equality constraint Jacobian...:    12663
Number of nonzeros in inequality constraint Jacobian.:    24120
Number of nonzeros in Lagrangian Hessian.............:        0

Total number of variables............................:      603
                     variables with only lower bounds:        0
                variables with lower and upper bounds:        0
                     variables with only upper bounds:        0
Total number of equality constraints.................:       21
Total number of inequality constraints...............:       40
        inequality constraints with only lower bounds:        0
   inequality constraints with lower and upper bounds:       40
        inequality constraints with only upper bounds:        0

iter    objective    inf_pr   inf_du lg(mu)  ||d||  lg(rg) alpha_du alpha_pr  ls
   0  3.9945394e+00 1.25e-16 3.20e-01   0.0 0.00e+00    -  0.00e+00 0.00e+00   0
   1  3.0713401e+00 1.94e-16 1.32e-01  -3.2 1.28e-01    -  9.98e-01 1.00e+00f  1
   2  2.8505281e+00 1.19e-02 3.27e-01  -3.3 1.42e-01    -  9.97e-01 9.16e-01h  1
   3  2.5282911e+00 1.52e-03 5.13e-02  -4.1 5.54e-02    -  1.00e+00 1.00e+00h  1
   4  2.3810400e+00 1.18e-03 4.03e-02  -4.4 3.31e-02    -  1.00e+00 1.00e+00h  1
   5  2.1897474e+00 4.41e-03 7.89e-02  -4.1 1.08e-01    -  1.00e+00 4.05e-01h  1
   6  2.0271033e+00 6.22e-03 3.79e-01  -3.2 1.10e-01    -  1.00e+00 3.65e-01h  1
   7  1.8322657e+00 7.53e-03 4.27e-01  -2.4 1.33e-01    -  1.00e+00 3.54e-01f  1
   8  1.5084722e+00 1.99e-02 5.96e-02  -3.3 1.05e-01    -  1.00e+00 1.00e+00h  1
   9  1.4789780e+00 9.61e-03 1.83e-01  -4.0 8.61e-02    -  1.00e+00 1.00e+00h  1
iter    objective    inf_pr   inf_du lg(mu)  ||d||  lg(rg) alpha_du alpha_pr  ls
  10  1.3250596e+00 1.11e-16 3.74e-02  -4.1 3.55e-02    -  1.00e+00 1.00e+00h  1
  11  1.2711586e+00 1.39e-16 2.38e-02  -5.0 2.39e-02    -  1.00e+00 1.00e+00h  1
  12  1.1945467e+00 5.08e-03 2.28e-02  -5.0 7.65e-02    -  1.00e+00 9.48e-01h  1
  13  1.1570071e+00 1.20e-04 1.99e-02  -4.6 2.59e-02    -  1.00e+00 9.72e-01h  1
  14  1.1141620e+00 1.29e-05 4.65e-02  -4.1 5.31e-02    -  1.00e+00 5.97e-01h  1
  15  1.0618182e+00 1.17e-03 1.66e-02  -4.1 6.10e-02    -  9.97e-01 1.00e+00h  1
  16  1.0387440e+00 2.41e-04 1.44e-02  -5.2 3.52e-02    -  1.00e+00 1.00e+00h  1
  17  1.0100562e+00 7.58e-04 1.38e-02  -4.8 4.77e-02    -  1.00e+00 9.89e-01h  1
  18  9.8570055e-01 7.98e-04 9.55e-03  -4.9 3.61e-02    -  1.00e+00 9.48e-01h  1
  19  9.6547412e-01 5.09e-04 2.24e-02  -4.7 3.17e-02    -  1.00e+00 6.80e-01h  1
iter    objective    inf_pr   inf_du lg(mu)  ||d||  lg(rg) alpha_du alpha_pr  ls
  20  9.3953963e-01 7.54e-04 1.33e-02  -4.9 3.61e-02    -  1.00e+00 1.00e+00h  1
  21  9.2471229e-01 4.21e-04 1.19e-02  -6.3 2.18e-02    -  1.00e+00 1.00e+00h  1
  22  9.1844545e-01 3.47e-04 3.20e-02  -5.7 2.78e-02    -  1.00e+00 2.71e-01h  1
  23  8.9694879e-01 4.84e-04 1.10e-02  -4.7 2.95e-02    -  1.00e+00 9.69e-01h  1
  24  8.8726643e-01 1.54e-04 9.45e-03  -6.2 1.80e-02    -  1.00e+00 1.00e+00h  1
  25  8.7327091e-01 1.24e-03 7.53e-03  -6.5 2.87e-02    -  1.00e+00 1.00e+00h  1
  26  8.6701127e-01 9.64e-04 1.51e-02  -6.7 2.37e-02    -  1.00e+00 4.47e-01h  1
  27  8.6367452e-01 8.64e-04 3.78e-02  -6.9 3.25e-02    -  1.00e+00 1.49e-01h  1
  28  8.4516114e-01 3.56e-03 8.03e-03  -6.0 4.11e-02    -  1.00e+00 1.00e+00h  1
  29  8.4068551e-01 1.56e-03 7.17e-03  -5.7 1.02e-02    -  1.00e+00 1.00e+00h  1
iter    objective    inf_pr   inf_du lg(mu)  ||d||  lg(rg) alpha_du alpha_pr  ls
  30  8.3209763e-01 9.65e-04 9.04e-02  -5.8 2.44e-02    -  5.53e-01 1.00e+00h  1
  31  8.2450464e-01 1.44e-03 6.54e-03  -6.0 2.75e-02    -  1.00e+00 1.00e+00h  1
  32  8.2003226e-01 9.68e-05 4.60e-03  -6.9 1.14e-02    -  1.00e+00 1.00e+00h  1
  33  8.1823433e-01 8.89e-05 9.64e-03  -7.7 1.86e-02    -  1.00e+00 2.06e-01h  1
  34  8.1468730e-01 9.31e-05 8.75e-02  -5.9 2.44e-02    -  1.00e+00 2.78e-01h  1
  35  8.0577682e-01 1.83e-03 5.04e-03  -5.9 2.99e-02    -  1.00e+00 1.00e+00h  1
  36  8.0341516e-01 7.21e-04 5.32e-03  -5.7 8.83e-03    -  1.00e+00 1.00e+00h  1
  37  8.0015190e-01 2.43e-03 6.24e-02  -4.5 4.01e-02    -  1.00e+00 3.82e-01h  1
  38  7.9511872e-01 5.54e-05 6.24e-02  -4.5 1.78e-02    -  7.50e-01 1.00e+00h  1
  39  7.9233300e-01 1.11e-16 5.63e-03  -4.7 1.44e-02    -  1.00e+00 1.00e+00h  1
iter    objective    inf_pr   inf_du lg(mu)  ||d||  lg(rg) alpha_du alpha_pr  ls
  40  7.8821624e-01 6.94e-17 5.50e-03  -5.5 2.03e-02    -  1.00e+00 1.00e+00h  1
  41  7.8171060e-01 3.27e-03 4.03e-03  -6.3 3.65e-02    -  1.00e+00 1.00e+00h  1
  42  7.7888994e-01 1.72e-04 6.33e-03  -5.2 1.84e-02    -  1.00e+00 6.25e-01h  1
  43  7.7690107e-01 1.98e-04 3.74e-02  -5.3 1.61e-02    -  1.00e+00 4.01e-01h  1
  44  7.7339823e-01 1.70e-04 2.75e-02  -5.0 1.38e-02    -  1.00e+00 6.85e-01h  1
  45  7.7103050e-01 8.17e-05 4.56e-03  -5.6 1.00e-02    -  1.00e+00 1.00e+00h  1
  46  7.6858337e-01 5.80e-04 1.06e-02  -5.3 1.66e-02    -  1.00e+00 7.70e-01h  1
  47  7.6776029e-01 1.14e-04 1.77e-02  -6.6 7.45e-03    -  6.71e-01 4.20e-01h  1
  48  7.6339155e-01 4.95e-04 2.99e-03  -5.3 1.67e-02    -  1.00e+00 1.00e+00h  1

Number of Iterations....: 48

                                   (scaled)                 (unscaled)
Objective...............:   7.6339155245573220e-02    7.6339155245573220e-01
Dual infeasibility......:   2.9862204700300482e-03    2.9862204700300481e-02
Constraint violation....:   4.9479292404286390e-04    4.9479292404286390e-04
Complementarity.........:   3.0188577769425408e-05    3.0188577769425405e-04
Overall NLP error.......:   2.9862204700300482e-03    2.9862204700300481e-02


Number of objective function evaluations             = 49
Number of objective gradient evaluations             = 49
Number of equality constraint evaluations            = 49
Number of inequality constraint evaluations          = 49
Number of equality constraint Jacobian evaluations   = 49
Number of inequality constraint Jacobian evaluations = 49
Number of Lagrangian Hessian evaluations             = 0
Total CPU secs in IPOPT (w/o function evaluations)   =      1.729
Total CPU secs in NLP function evaluations           =    133.419

EXIT: Optimal Solution Found.
